ATSP.tsp
NAME : pr2392
COMMENT : 2392-city problem (Padberg/Rinaldi)
TYPE : ATSP
DIMENSION : 5
EDGE_WEIGHT_TYPE : EXPLICIT
EDGE_WEIGHT_FORMAT: FULL_MATRIX
EDGE_WEIGHT_SECTION 
100 300 200 400 400 
400 500 500 500 300 
400 500 450 500 300 
230 300 500 200 300 
400 460 100 500 320 
